# Solution for model GasLib-40
# Objective value = 3.8384379852551305e+01
loadshed[innode_1] 0
loadshed[innode_2] 0
loadshed[innode_3] 0
loadshed[innode_4] 0
loadshed[innode_5] 0
loadshed[innode_6] 0
loadshed[innode_7] 0
loadshed[innode_8] 0
loadshed[source_1] -2.0307368226688416e-01
loadshed[source_2] 1.2053540483966918e-01
loadshed[source_3] 3.2533865953852437e-01
loadshed[sink_1] 0
loadshed[sink_2] 0
loadshed[sink_3] 0
loadshed[sink_4] 0
loadshed[sink_5] 0
loadshed[sink_6] 0
loadshed[sink_7] 0
loadshed[sink_8] 0
loadshed[sink_9] 0
loadshed[sink_10] 0
loadshed[sink_11] 0
loadshed[sink_12] 1
loadshed[sink_13] 0
loadshed[sink_14] 0
loadshed[sink_15] 0
loadshed[sink_16] 0
loadshed[sink_17] 0
loadshed[sink_18] 0
loadshed[sink_19] 0
loadshed[sink_20] 0
loadshed[sink_21] 1
loadshed[sink_22] 0
loadshed[sink_23] 0
loadshed[sink_24] 3.4707036041078004e-01
loadshed[sink_25] 0
loadshed[sink_26] 0
loadshed[sink_27] 0
loadshed[sink_28] 0
loadshed[sink_29] 0
flow[source_1,sink_3] 1.9019425261670568e+02
flow[innode_1,sink_16] 1.6354166666666970e+01
flow[innode_6,sink_13] 7.8217679471841421e+00
flow[sink_13,sink_14] -8.5323987194825257e+00
flow[sink_14,sink_10] -2.4886565386149186e+01
flow[sink_25,sink_26] 1.3008087651768594e+02
flow[sink_26,sink_9] 3.2708333333334551e+01
flow[sink_9,sink_18] 1.6354166666667879e+01
flow[sink_26,sink_4] 8.1018376517684715e+01
flow[sink_4,sink_20] -1.5569595304279712e+01
flow[sink_18,sink_6] 0
flow[sink_25,innode_8] -1.5748591928336930e+02
flow[sink_6,sink_7] -4.9062500000000313e+01
flow[sink_6,sink_22] 3.2708333333333641e+01
flow[sink_7,sink_24] 1.0678120147448704e+01
flow[sink_22,sink_1] 1.6354166666666970e+01
flow[sink_24,sink_21] 0
flow[sink_21,sink_12] 0
flow[sink_7,sink_5] -7.6094786814115679e+01
flow[sink_5,sink_17] -9.2448953480782350e+01
flow[sink_17,sink_4] -8.0233805155297787e+01
flow[sink_17,sink_8] -2.8569314992151217e+01
flow[sink_3,sink_23] 16.3541666666697
flow[sink_8,sink_20] -4.4923481658817884e+01
flow[sink_25,sink_20] 7.6847243629764250e+01
flow[sink_25,sink_15] -73.6181354779322
flow[sink_15,sink_29] -8.9972302144598871e+01
flow[sink_29,sink_28] 1.6354166666667879e+01
flow[sink_29,sink_2] 1.6354166666684250e+01
flow[sink_2,sink_15] 0
flow[sink_29,innode_7] -1.3903480214461757e+02
flow[innode_4,sink_19] 4.0824456082929181e+01
flow[sink_19,innode_3] 0
flow[innode_4,innode_5] 65.8329426365534
flow[sink_27,innode_5] -65.8329426365534
flow[sink_27,sink_19] 4.9478775969886726e+01
flow[sink_10,sink_11] 3.2708333333333641e+01
flow[sink_10,innode_2] -7.3949065386149755e+01
flow[sink_10,innode_3] 0
flow[innode_6,sink_25] -7.8217679471841421e+00
flow[sink_11,innode_1] 1.6354166666666970e+01
flow[sink_19,innode_2] 7.3949065386149755e+01
flow[source_3,innode_4] 1.0665739871948259e+02
flow[source_2,innode_7] 1.3903480214461757e+02
flow[sink_3,innode_8] 1.5748591928336930e+02
pressure[innode_1] 7.5299132429869090e+01
pressure[innode_2] 7.9359347262773568e+01
pressure[innode_3] 7.9359347262773568e+01
pressure[innode_4] 81.01325
pressure[innode_5] 8.0967966630672763e+01
pressure[innode_6] 74.3015847843248
pressure[innode_7] 81.01325
pressure[innode_8] 8.0377503270340370e+01
pressure[source_1] 81.01325
pressure[source_2] 81.01325
pressure[source_3] 81.01325
pressure[sink_1] 1.0464313141772505e+01
pressure[sink_2] 7.6880344212379455e+01
pressure[sink_3] 8.0377503270340370e+01
pressure[sink_4] 54.839178968069
pressure[sink_5] 4.4886128703738862e+01
pressure[sink_6] 1.2565390752159880e+01
pressure[sink_7] 1.3238901929860010e+01
pressure[sink_8] 5.2850901973737116e+01
pressure[sink_9] 6.3182386875561946e+01
pressure[sink_10] 7.5450833737472635e+01
pressure[sink_11] 7.5299132429869090e+01
pressure[sink_12] 1.01325
pressure[sink_13] 7.4258464684770829e+01
pressure[sink_14] 7.4273734139079011e+01
pressure[sink_15] 74.6587044765114
pressure[sink_16] 7.4277482595051410e+01
pressure[sink_17] 5.1772907497828022e+01
pressure[sink_18] 6.2590644381762246e+01
pressure[sink_19] 7.9359347262773568e+01
pressure[sink_20] 5.5981436874258016e+01
pressure[sink_21] 1.01325
pressure[sink_22] 1.1528082284127516e+01
pressure[sink_23] 8.0212785258680583e+01
pressure[sink_24] 1.01325
pressure[sink_25] 74.3015847843248
pressure[sink_26] 6.5140065043446555e+01
pressure[sink_27] 8.0421674852987465e+01
pressure[sink_28] 7.6999331437225933e+01
pressure[sink_29] 7.7294613710843109e+01
interdiction[source_1,sink_3] 0
interdiction[innode_1,sink_16] 0
interdiction[innode_6,sink_13] 0
interdiction[sink_13,sink_14] 0
interdiction[sink_14,sink_10] 0
interdiction[sink_25,sink_26] 0
interdiction[sink_26,sink_9] 0
interdiction[sink_9,sink_18] 0
interdiction[sink_26,sink_4] 0
interdiction[sink_4,sink_20] 0
interdiction[sink_18,sink_6] 1
interdiction[sink_25,innode_8] 0
interdiction[sink_6,sink_7] 0
interdiction[sink_6,sink_22] 0
interdiction[sink_7,sink_24] 0
interdiction[sink_22,sink_1] 0
interdiction[sink_24,sink_21] 0
interdiction[sink_21,sink_12] 0
interdiction[sink_7,sink_5] 0
interdiction[sink_5,sink_17] 0
interdiction[sink_17,sink_4] 0
interdiction[sink_17,sink_8] 0
interdiction[sink_3,sink_23] 0
interdiction[sink_8,sink_20] 0
interdiction[sink_25,sink_20] 0
interdiction[sink_25,sink_15] 0
interdiction[sink_15,sink_29] 0
interdiction[sink_29,sink_28] 0
interdiction[sink_29,sink_2] 0
interdiction[sink_2,sink_15] 1
interdiction[sink_29,innode_7] 0
interdiction[innode_4,sink_19] 0
interdiction[sink_19,innode_3] 0
interdiction[innode_4,innode_5] 0
interdiction[sink_27,innode_5] 0
interdiction[sink_27,sink_19] 0
interdiction[sink_10,sink_11] 0
interdiction[sink_10,innode_2] 0
interdiction[sink_10,innode_3] 1
interdiction[innode_6,sink_25] 0
interdiction[sink_11,innode_1] 0
interdiction[sink_19,innode_2] 0
interdiction[source_3,innode_4] 0
interdiction[source_2,innode_7] 0
interdiction[sink_3,innode_8] 0
WCcheckFlow[source_1,sink_3] 39
WCcheckFlow[innode_1,sink_16] 1
WCcheckFlow[innode_6,sink_13] 13
WCcheckFlow[sink_13,sink_14] 12
WCcheckFlow[sink_14,sink_10] 11
WCcheckFlow[sink_25,sink_26] 15
WCcheckFlow[sink_26,sink_9] 2
WCcheckFlow[sink_9,sink_18] 1
WCcheckFlow[sink_26,sink_4] 12
WCcheckFlow[sink_4,sink_20] 1
WCcheckFlow[sink_18,sink_6] 0
WCcheckFlow[sink_25,innode_8] -36
WCcheckFlow[sink_6,sink_7] -3
WCcheckFlow[sink_6,sink_22] 2
WCcheckFlow[sink_7,sink_24] 3
WCcheckFlow[sink_22,sink_1] 1
WCcheckFlow[sink_24,sink_21] 2
WCcheckFlow[sink_21,sink_12] 1
WCcheckFlow[sink_7,sink_5] -7
WCcheckFlow[sink_5,sink_17] -8
WCcheckFlow[sink_17,sink_4] -10
WCcheckFlow[sink_17,sink_8] 1
WCcheckFlow[sink_3,sink_23] 1
WCcheckFlow[sink_8,sink_20] 0
WCcheckFlow[sink_25,sink_20] 0
WCcheckFlow[sink_25,sink_15] 6
WCcheckFlow[sink_15,sink_29] 5
WCcheckFlow[sink_29,sink_28] 1
WCcheckFlow[sink_29,sink_2] 1
WCcheckFlow[sink_2,sink_15] 0
WCcheckFlow[sink_29,innode_7] 2
WCcheckFlow[innode_4,sink_19] -4
WCcheckFlow[sink_19,innode_3] 1
WCcheckFlow[innode_4,innode_5] 2
WCcheckFlow[sink_27,innode_5] -1
WCcheckFlow[sink_27,sink_19] 0
WCcheckFlow[sink_10,sink_11] 3
WCcheckFlow[sink_10,innode_2] 7
WCcheckFlow[sink_10,innode_3] 0
WCcheckFlow[innode_6,sink_25] -14
WCcheckFlow[sink_11,innode_1] 2
WCcheckFlow[sink_19,innode_2] -6
WCcheckFlow[source_3,innode_4] -1
WCcheckFlow[source_2,innode_7] -1
WCcheckFlow[sink_3,innode_8] 37
